新宫->牡丹园
weekday
5 29 37 45 53	
6 01 09 15 21 27 33 38 44 51 57	
7 02 08 15 21 27 33 39 45 51 57	
8 03 09 15 21 27 33 39 46 53	
9 03 10 17 27 34 41 51 59	
10 07 15 23 31 39 47 55	
11 03 11 19 27 35 43 51 59	
12 07 15 23 31 39 47 55	
13 03 11 19 27 35 43 51 59	
14 07 15 23 31 39 47 55	
15 03 11 19 27 35 43 51 59	
16 07 15 20 26 33 39 44 50 57	
17 03 08 14 21 27 33 39 45 51 57	
18 03 09 15 21 27 33 39 45 52 58	
19 09 15 22 33 39 46 57	
20 05 13 21 29 39 48 57	
21 06 19 29 39 49 59	
22 09 19 29 39 49 59	
23 09 21

weekend
5 29 39 49 59	
6 09 19 29 36 42 51	
7 01 09 17 25 33 41 49 57	
8 05 13 21 29 37 45 53	
9 01 09 17 25 33 41 49 57
10 05 13 21 29 37 45 53	
11 01 09 17 25 33 41 49 57	
12 05 13 21 29 37 45 53	
13 01 09 17 25 33 41 49 57	
14 05 13 21 29 37 45 53	
15 01 09 17 25 33 41 49 57	
16 05 13 21 29 37 45 53	
17 01 09 17 25 33 41 49 57	
18 05 13 21 29 37 45 53	
19 01 09 17 25 33 41 49 57	
20 05 13 21 29 37 45 53	
21 01 09 17 25 33 41 49 59	
22 09 16 29 39 49 59	
23 09 21


